NAME: PC 8:0_26:2
PRECURSORMZ: 758.56943
PRECURSORTYPE: [M+H]+
SMILES: CCCCCCC\C=C/C\C=C/CCCCCCCCCCCCCC(=O)OC(COC(=O)CCCCCCC)COP([O-])(=O)OCC[N+](C)(C)C
INCHIKEY: QQAGDZRFSLWFBO-GJLVVWLQNA-N
FORMULA: C42H80NO8P
RETENTIONTIME: 9.39
CCS: 285.99
IONMODE: Positive
COMPOUNDCLASS: PC
Comment: theoretical MS2 created from the information of SCIEX 5600 and 6600 with 45CE +-15CES
Num Peaks: 6
184.0733	999
366.2048	50
384.2153	50
614.455	50
632.4656	50
758.5695	300

NAME: CP001 
PRECURSORMZ: 758.56943
PRECURSORTYPE: [M+H]+
SMILES: CCCCCCC\C=C/C\C=C/CCCCCCCCCCCCCC(=O)OC(COC(=O)CCCCCCC)COP([O-])(=O)OCC[N+](C)(C)C
INCHIKEY: QQAGDZRFSLWFBO-GJLVVWLQNA-N
FORMULA: C42H80NO8P
RETENTIONTIME: 54
CCS: 285.99
IONMODE: Positive
COMPOUNDCLASS: PC
Comment: theoretical MS2 created from Astral data
Num Peaks: 5
86.0963 	300
104.10699       300
124.9998        300
184.0734        300
229.430  	300

NAME: CP002
PRECURSORMZ: 760.58508
PRECURSORTYPE: [M+H]+
FORMULA: C42H82O8N1P1
RETENTIONTIME: 16
IONMODE: Positive
COMPOUNDCLASS: PC
Comment: theoretical MS2 created from Astral data
86.0963		300
124.9998 	300
184.0734	300
104.10699 	300
